NAME: line_10_6
TYPE: TSP
COMMENT: line_10_6
DIMENSION: 10
EDGE_WEIGHT_TYPE: EUC_2D
NODE_COORD_SECTION
1 0.0 30.0
2 0.0 59.0
3 0.0 42.0
4 0.0 45.0
5 0.0 16.0
6 0.0 22.0
7 0.0 41.0
8 0.0 10.0
9 0.0 13.0
10 0.0 28.0
